c description: Perfect Matching Principle on 
c generator: CNFgen (0.9.0)
c copyright: (C) 2012-2020 Massimo Lauria <massimo.lauria@uniroma1.it>
c url: https://massimolauria.net/cnfgen
c
p cnf 160 1278
-1 -2 0
-1 -3 0
-1 -4 0
-1 -5 0
-2 -3 0
-2 -4 0
-2 -5 0
-3 -4 0
-3 -5 0
-4 -5 0
1 2 3 4 5 0
-6 -7 0
-6 -8 0
-6 -9 0
-6 -10 0
-6 -11 0
-7 -8 0
-7 -9 0
-7 -10 0
-7 -11 0
-8 -9 0
-8 -10 0
-8 -11 0
-9 -10 0
-9 -11 0
-10 -11 0
6 7 8 9 10 11 0
-12 -13 0
-12 -14 0
-12 -15 0
-12 -16 0
-12 -17 0
-12 -18 0
-12 -19 0
-13 -14 0
-13 -15 0
-13 -16 0
-13 -17 0
-13 -18 0
-13 -19 0
-14 -15 0
-14 -16 0
-14 -17 0
-14 -18 0
-14 -19 0
-15 -16 0
-15 -17 0
-15 -18 0
-15 -19 0
-16 -17 0
-16 -18 0
-16 -19 0
-17 -18 0
-17 -19 0
-18 -19 0
12 13 14 15 16 17 18 19 0
-20 -21 0
-20 -22 0
-20 -23 0
-20 -24 0
-20 -25 0
-20 -26 0
-20 -27 0
-20 -28 0
-20 -29 0
-20 -30 0
-20 -31 0
-21 -22 0
-21 -23 0
-21 -24 0
-21 -25 0
-21 -26 0
-21 -27 0
-21 -28 0
-21 -29 0
-21 -30 0
-21 -31 0
-22 -23 0
-22 -24 0
-22 -25 0
-22 -26 0
-22 -27 0
-22 -28 0
-22 -29 0
-22 -30 0
-22 -31 0
-23 -24 0
-23 -25 0
-23 -26 0
-23 -27 0
-23 -28 0
-23 -29 0
-23 -30 0
-23 -31 0
-24 -25 0
-24 -26 0
-24 -27 0
-24 -28 0
-24 -29 0
-24 -30 0
-24 -31 0
-25 -26 0
-25 -27 0
-25 -28 0
-25 -29 0
-25 -30 0
-25 -31 0
-26 -27 0
-26 -28 0
-26 -29 0
-26 -30 0
-26 -31 0
-27 -28 0
-27 -29 0
-27 -30 0
-27 -31 0
-28 -29 0
-28 -30 0
-28 -31 0
-29 -30 0
-29 -31 0
-30 -31 0
20 21 22 23 24 25 26 27 28 29 30 31 0
-6 -20 0
-6 -32 0
-6 -33 0
-6 -34 0
-6 -35 0
-6 -36 0
-6 -37 0
-6 -38 0
-6 -39 0
-20 -32 0
-20 -33 0
-20 -34 0
-20 -35 0
-20 -36 0
-20 -37 0
-20 -38 0
-20 -39 0
-32 -33 0
-32 -34 0
-32 -35 0
-32 -36 0
-32 -37 0
-32 -38 0
-32 -39 0
-33 -34 0
-33 -35 0
-33 -36 0
-33 -37 0
-33 -38 0
-33 -39 0
-34 -35 0
-34 -36 0
-34 -37 0
-34 -38 0
-34 -39 0
-35 -36 0
-35 -37 0
-35 -38 0
-35 -39 0
-36 -37 0
-36 -38 0
-36 -39 0
-37 -38 0
-37 -39 0
-38 -39 0
6 20 32 33 34 35 36 37 38 39 0
-32 -40 0
-32 -41 0
-32 -42 0
-32 -43 0
-32 -44 0
-32 -45 0
-32 -46 0
-32 -47 0
-32 -48 0
-32 -49 0
-32 -50 0
-32 -51 0
-40 -41 0
-40 -42 0
-40 -43 0
-40 -44 0
-40 -45 0
-40 -46 0
-40 -47 0
-40 -48 0
-40 -49 0
-40 -50 0
-40 -51 0
-41 -42 0
-41 -43 0
-41 -44 0
-41 -45 0
-41 -46 0
-41 -47 0
-41 -48 0
-41 -49 0
-41 -50 0
-41 -51 0
-42 -43 0
-42 -44 0
-42 -45 0
-42 -46 0
-42 -47 0
-42 -48 0
-42 -49 0
-42 -50 0
-42 -51 0
-43 -44 0
-43 -45 0
-43 -46 0
-43 -47 0
-43 -48 0
-43 -49 0
-43 -50 0
-43 -51 0
-44 -45 0
-44 -46 0
-44 -47 0
-44 -48 0
-44 -49 0
-44 -50 0
-44 -51 0
-45 -46 0
-45 -47 0
-45 -48 0
-45 -49 0
-45 -50 0
-45 -51 0
-46 -47 0
-46 -48 0
-46 -49 0
-46 -50 0
-46 -51 0
-47 -48 0
-47 -49 0
-47 -50 0
-47 -51 0
-48 -49 0
-48 -50 0
-48 -51 0
-49 -50 0
-49 -51 0
-50 -51 0
32 40 41 42 43 44 45 46 47 48 49 50 51 0
-52 -53 0
-52 -54 0
-53 -54 0
52 53 54 0
-7 -55 0
-7 -56 0
-7 -57 0
-7 -58 0
-7 -59 0
-7 -60 0
-55 -56 0
-55 -57 0
-55 -58 0
-55 -59 0
-55 -60 0
-56 -57 0
-56 -58 0
-56 -59 0
-56 -60 0
-57 -58 0
-57 -59 0
-57 -60 0
-58 -59 0
-58 -60 0
-59 -60 0
7 55 56 57 58 59 60 0
-40 -61 0
-40 -62 0
-40 -63 0
-40 -64 0
-40 -65 0
-61 -62 0
-61 -63 0
-61 -64 0
-61 -65 0
-62 -63 0
-62 -64 0
-62 -65 0
-63 -64 0
-63 -65 0
-64 -65 0
40 61 62 63 64 65 0
-55 -66 0
-55 -67 0
-55 -68 0
-55 -69 0
-55 -70 0
-55 -71 0
-55 -72 0
-55 -73 0
-55 -74 0
-55 -75 0
-66 -67 0
-66 -68 0
-66 -69 0
-66 -70 0
-66 -71 0
-66 -72 0
-66 -73 0
-66 -74 0
-66 -75 0
-67 -68 0
-67 -69 0
-67 -70 0
-67 -71 0
-67 -72 0
-67 -73 0
-67 -74 0
-67 -75 0
-68 -69 0
-68 -70 0
-68 -71 0
-68 -72 0
-68 -73 0
-68 -74 0
-68 -75 0
-69 -70 0
-69 -71 0
-69 -72 0
-69 -73 0
-69 -74 0
-69 -75 0
-70 -71 0
-70 -72 0
-70 -73 0
-70 -74 0
-70 -75 0
-71 -72 0
-71 -73 0
-71 -74 0
-71 -75 0
-72 -73 0
-72 -74 0
-72 -75 0
-73 -74 0
-73 -75 0
-74 -75 0
55 66 67 68 69 70 71 72 73 74 75 0
-41 -76 0
-41 -77 0
-41 -78 0
-41 -79 0
-76 -77 0
-76 -78 0
-76 -79 0
-77 -78 0
-77 -79 0
-78 -79 0
41 76 77 78 79 0
-12 -80 0
-12 -81 0
-12 -82 0
-12 -83 0
-12 -84 0
-12 -85 0
-12 -86 0
-12 -87 0
-80 -81 0
-80 -82 0
-80 -83 0
-80 -84 0
-80 -85 0
-80 -86 0
-80 -87 0
-81 -82 0
-81 -83 0
-81 -84 0
-81 -85 0
-81 -86 0
-81 -87 0
-82 -83 0
-82 -84 0
-82 -85 0
-82 -86 0
-82 -87 0
-83 -84 0
-83 -85 0
-83 -86 0
-83 -87 0
-84 -85 0
-84 -86 0
-84 -87 0
-85 -86 0
-85 -87 0
-86 -87 0
12 80 81 82 83 84 85 86 87 0
-8 -21 0
-8 -88 0
-8 -89 0
-8 -90 0
-8 -91 0
-8 -92 0
-21 -88 0
-21 -89 0
-21 -90 0
-21 -91 0
-21 -92 0
-88 -89 0
-88 -90 0
-88 -91 0
-88 -92 0
-89 -90 0
-89 -91 0
-89 -92 0
-90 -91 0
-90 -92 0
-91 -92 0
8 21 88 89 90 91 92 0
-13 -52 0
-13 -66 0
-13 -88 0
-13 -93 0
-13 -94 0
-13 -95 0
-13 -96 0
-52 -66 0
-52 -88 0
-52 -93 0
-52 -94 0
-52 -95 0
-52 -96 0
-66 -88 0
-66 -93 0
-66 -94 0
-66 -95 0
-66 -96 0
-88 -93 0
-88 -94 0
-88 -95 0
-88 -96 0
-93 -94 0
-93 -95 0
-93 -96 0
-94 -95 0
-94 -96 0
-95 -96 0
13 52 66 88 93 94 95 96 0
-42 -53 0
-42 -56 0
-42 -67 0
-42 -89 0
-42 -97 0
-42 -98 0
-42 -99 0
-42 -100 0
-42 -101 0
-42 -102 0
-53 -56 0
-53 -67 0
-53 -89 0
-53 -97 0
-53 -98 0
-53 -99 0
-53 -100 0
-53 -101 0
-53 -102 0
-56 -67 0
-56 -89 0
-56 -97 0
-56 -98 0
-56 -99 0
-56 -100 0
-56 -101 0
-56 -102 0
-67 -89 0
-67 -97 0
-67 -98 0
-67 -99 0
-67 -100 0
-67 -101 0
-67 -102 0
-89 -97 0
-89 -98 0
-89 -99 0
-89 -100 0
-89 -101 0
-89 -102 0
-97 -98 0
-97 -99 0
-97 -100 0
-97 -101 0
-97 -102 0
-98 -99 0
-98 -100 0
-98 -101 0
-98 -102 0
-99 -100 0
-99 -101 0
-99 -102 0
-100 -101 0
-100 -102 0
-101 -102 0
42 53 56 67 89 97 98 99 100 101 102 0
-43 -61 0
-43 -68 0
-43 -80 0
-61 -68 0
-61 -80 0
-68 -80 0
43 61 68 80 0
-1 -22 0
-1 -76 0
-1 -103 0
-1 -104 0
-1 -105 0
-22 -76 0
-22 -103 0
-22 -104 0
-22 -105 0
-76 -103 0
-76 -104 0
-76 -105 0
-103 -104 0
-103 -105 0
-104 -105 0
1 22 76 103 104 105 0
-14 -33 0
-14 -106 0
-14 -107 0
-14 -108 0
-33 -106 0
-33 -107 0
-33 -108 0
-106 -107 0
-106 -108 0
-107 -108 0
14 33 106 107 108 0
-23 -44 0
-23 -109 0
-23 -110 0
-23 -111 0
-23 -112 0
-23 -113 0
-23 -114 0
-23 -115 0
-44 -109 0
-44 -110 0
-44 -111 0
-44 -112 0
-44 -113 0
-44 -114 0
-44 -115 0
-109 -110 0
-109 -111 0
-109 -112 0
-109 -113 0
-109 -114 0
-109 -115 0
-110 -111 0
-110 -112 0
-110 -113 0
-110 -114 0
-110 -115 0
-111 -112 0
-111 -113 0
-111 -114 0
-111 -115 0
-112 -113 0
-112 -114 0
-112 -115 0
-113 -114 0
-113 -115 0
-114 -115 0
23 44 109 110 111 112 113 114 115 0
-69 -81 0
-69 -116 0
-69 -117 0
-69 -118 0
-69 -119 0
-69 -120 0
-81 -116 0
-81 -117 0
-81 -118 0
-81 -119 0
-81 -120 0
-116 -117 0
-116 -118 0
-116 -119 0
-116 -120 0
-117 -118 0
-117 -119 0
-117 -120 0
-118 -119 0
-118 -120 0
-119 -120 0
69 81 116 117 118 119 120 0
-9 -62 0
-9 -93 0
-9 -97 0
-9 -109 0
-9 -116 0
-9 -121 0
-9 -122 0
-9 -123 0
-62 -93 0
-62 -97 0
-62 -109 0
-62 -116 0
-62 -121 0
-62 -122 0
-62 -123 0
-93 -97 0
-93 -109 0
-93 -116 0
-93 -121 0
-93 -122 0
-93 -123 0
-97 -109 0
-97 -116 0
-97 -121 0
-97 -122 0
-97 -123 0
-109 -116 0
-109 -121 0
-109 -122 0
-109 -123 0
-116 -121 0
-116 -122 0
-116 -123 0
-121 -122 0
-121 -123 0
-122 -123 0
9 62 93 97 109 116 121 122 123 0
-24 -34 0
-24 -45 0
-24 -63 0
-24 -98 0
-24 -117 0
-24 -124 0
-24 -125 0
-24 -126 0
-24 -127 0
-34 -45 0
-34 -63 0
-34 -98 0
-34 -117 0
-34 -124 0
-34 -125 0
-34 -126 0
-34 -127 0
-45 -63 0
-45 -98 0
-45 -117 0
-45 -124 0
-45 -125 0
-45 -126 0
-45 -127 0
-63 -98 0
-63 -117 0
-63 -124 0
-63 -125 0
-63 -126 0
-63 -127 0
-98 -117 0
-98 -124 0
-98 -125 0
-98 -126 0
-98 -127 0
-117 -124 0
-117 -125 0
-117 -126 0
-117 -127 0
-124 -125 0
-124 -126 0
-124 -127 0
-125 -126 0
-125 -127 0
-126 -127 0
24 34 45 63 98 117 124 125 126 127 0
-15 -35 0
-15 -77 0
-15 -82 0
-15 -128 0
-15 -129 0
-15 -130 0
-15 -131 0
-15 -132 0
-35 -77 0
-35 -82 0
-35 -128 0
-35 -129 0
-35 -130 0
-35 -131 0
-35 -132 0
-77 -82 0
-77 -128 0
-77 -129 0
-77 -130 0
-77 -131 0
-77 -132 0
-82 -128 0
-82 -129 0
-82 -130 0
-82 -131 0
-82 -132 0
-128 -129 0
-128 -130 0
-128 -131 0
-128 -132 0
-129 -130 0
-129 -131 0
-129 -132 0
-130 -131 0
-130 -132 0
-131 -132 0
15 35 77 82 128 129 130 131 132 0
-2 -54 0
-2 -57 0
-2 -70 0
-2 -83 0
-2 -124 0
-2 -133 0
-2 -134 0
-2 -135 0
-54 -57 0
-54 -70 0
-54 -83 0
-54 -124 0
-54 -133 0
-54 -134 0
-54 -135 0
-57 -70 0
-57 -83 0
-57 -124 0
-57 -133 0
-57 -134 0
-57 -135 0
-70 -83 0
-70 -124 0
-70 -133 0
-70 -134 0
-70 -135 0
-83 -124 0
-83 -133 0
-83 -134 0
-83 -135 0
-124 -133 0
-124 -134 0
-124 -135 0
-133 -134 0
-133 -135 0
-134 -135 0
2 54 57 70 83 124 133 134 135 0
-25 -46 0
-25 -110 0
-25 -133 0
-25 -136 0
-25 -137 0
-25 -138 0
-46 -110 0
-46 -133 0
-46 -136 0
-46 -137 0
-46 -138 0
-110 -133 0
-110 -136 0
-110 -137 0
-110 -138 0
-133 -136 0
-133 -137 0
-133 -138 0
-136 -137 0
-136 -138 0
-137 -138 0
25 46 110 133 136 137 138 0
-36 -58 0
-36 -78 0
-36 -94 0
-36 -118 0
-36 -139 0
-36 -140 0
-36 -141 0
-36 -142 0
-36 -143 0
-36 -144 0
-36 -145 0
-58 -78 0
-58 -94 0
-58 -118 0
-58 -139 0
-58 -140 0
-58 -141 0
-58 -142 0
-58 -143 0
-58 -144 0
-58 -145 0
-78 -94 0
-78 -118 0
-78 -139 0
-78 -140 0
-78 -141 0
-78 -142 0
-78 -143 0
-78 -144 0
-78 -145 0
-94 -118 0
-94 -139 0
-94 -140 0
-94 -141 0
-94 -142 0
-94 -143 0
-94 -144 0
-94 -145 0
-118 -139 0
-118 -140 0
-118 -141 0
-118 -142 0
-118 -143 0
-118 -144 0
-118 -145 0
-139 -140 0
-139 -141 0
-139 -142 0
-139 -143 0
-139 -144 0
-139 -145 0
-140 -141 0
-140 -142 0
-140 -143 0
-140 -144 0
-140 -145 0
-141 -142 0
-141 -143 0
-141 -144 0
-141 -145 0
-142 -143 0
-142 -144 0
-142 -145 0
-143 -144 0
-143 -145 0
-144 -145 0
36 58 78 94 118 139 140 141 142 143 144 145 0
-16 -95 0
-16 -99 0
-16 -103 0
-16 -111 0
-16 -128 0
-16 -136 0
-16 -146 0
-16 -147 0
-95 -99 0
-95 -103 0
-95 -111 0
-95 -128 0
-95 -136 0
-95 -146 0
-95 -147 0
-99 -103 0
-99 -111 0
-99 -128 0
-99 -136 0
-99 -146 0
-99 -147 0
-103 -111 0
-103 -128 0
-103 -136 0
-103 -146 0
-103 -147 0
-111 -128 0
-111 -136 0
-111 -146 0
-111 -147 0
-128 -136 0
-128 -146 0
-128 -147 0
-136 -146 0
-136 -147 0
-146 -147 0
16 95 99 103 111 128 136 146 147 0
-37 -64 0
-37 -84 0
-37 -106 0
-37 -112 0
-37 -137 0
-37 -139 0
-37 -148 0
-37 -149 0
-64 -84 0
-64 -106 0
-64 -112 0
-64 -137 0
-64 -139 0
-64 -148 0
-64 -149 0
-84 -106 0
-84 -112 0
-84 -137 0
-84 -139 0
-84 -148 0
-84 -149 0
-106 -112 0
-106 -137 0
-106 -139 0
-106 -148 0
-106 -149 0
-112 -137 0
-112 -139 0
-112 -148 0
-112 -149 0
-137 -139 0
-137 -148 0
-137 -149 0
-139 -148 0
-139 -149 0
-148 -149 0
37 64 84 106 112 137 139 148 149 0
-71 -100 0
-71 -107 0
-71 -121 0
-71 -129 0
-71 -140 0
-71 -150 0
-71 -151 0
-100 -107 0
-100 -121 0
-100 -129 0
-100 -140 0
-100 -150 0
-100 -151 0
-107 -121 0
-107 -129 0
-107 -140 0
-107 -150 0
-107 -151 0
-121 -129 0
-121 -140 0
-121 -150 0
-121 -151 0
-129 -140 0
-129 -150 0
-129 -151 0
-140 -150 0
-140 -151 0
-150 -151 0
71 100 107 121 129 140 150 151 0
-26 -72 0
-26 -101 0
-26 -152 0
-26 -153 0
-26 -154 0
-26 -155 0
-26 -156 0
-72 -101 0
-72 -152 0
-72 -153 0
-72 -154 0
-72 -155 0
-72 -156 0
-101 -152 0
-101 -153 0
-101 -154 0
-101 -155 0
-101 -156 0
-152 -153 0
-152 -154 0
-152 -155 0
-152 -156 0
-153 -154 0
-153 -155 0
-153 -156 0
-154 -155 0
-154 -156 0
-155 -156 0
26 72 101 152 153 154 155 156 0
-10 -17 0
-10 -27 0
-10 -96 0
-10 -108 0
-10 -119 0
-10 -148 0
-10 -152 0
-17 -27 0
-17 -96 0
-17 -108 0
-17 -119 0
-17 -148 0
-17 -152 0
-27 -96 0
-27 -108 0
-27 -119 0
-27 -148 0
-27 -152 0
-96 -108 0
-96 -119 0
-96 -148 0
-96 -152 0
-108 -119 0
-108 -148 0
-108 -152 0
-119 -148 0
-119 -152 0
-148 -152 0
10 17 27 96 108 119 148 152 0
-65 -73 0
-65 -90 0
-65 -104 0
-65 -125 0
-65 -130 0
-65 -134 0
-65 -141 0
-65 -153 0
-73 -90 0
-73 -104 0
-73 -125 0
-73 -130 0
-73 -134 0
-73 -141 0
-73 -153 0
-90 -104 0
-90 -125 0
-90 -130 0
-90 -134 0
-90 -141 0
-90 -153 0
-104 -125 0
-104 -130 0
-104 -134 0
-104 -141 0
-104 -153 0
-125 -130 0
-125 -134 0
-125 -141 0
-125 -153 0
-130 -134 0
-130 -141 0
-130 -153 0
-134 -141 0
-134 -153 0
-141 -153 0
65 73 90 104 125 130 134 141 153 0
-3 -28 0
-3 -47 0
-3 -59 0
-3 -113 0
-3 -131 0
-3 -154 0
-3 -157 0
-3 -158 0
-28 -47 0
-28 -59 0
-28 -113 0
-28 -131 0
-28 -154 0
-28 -157 0
-28 -158 0
-47 -59 0
-47 -113 0
-47 -131 0
-47 -154 0
-47 -157 0
-47 -158 0
-59 -113 0
-59 -131 0
-59 -154 0
-59 -157 0
-59 -158 0
-113 -131 0
-113 -154 0
-113 -157 0
-113 -158 0
-131 -154 0
-131 -157 0
-131 -158 0
-154 -157 0
-154 -158 0
-157 -158 0
3 28 47 59 113 131 154 157 158 0
-29 -48 0
-29 -120 0
-29 -142 0
-29 -149 0
-48 -120 0
-48 -142 0
-48 -149 0
-120 -142 0
-120 -149 0
-142 -149 0
29 48 120 142 149 0
-18 -49 0
-18 -114 0
-18 -126 0
-18 -143 0
-18 -157 0
-18 -159 0
-49 -114 0
-49 -126 0
-49 -143 0
-49 -157 0
-49 -159 0
-114 -126 0
-114 -143 0
-114 -157 0
-114 -159 0
-126 -143 0
-126 -157 0
-126 -159 0
-143 -157 0
-143 -159 0
-157 -159 0
18 49 114 126 143 157 159 0
-19 -38 0
-19 -85 0
-19 -91 0
-19 -115 0
-19 -135 0
-19 -144 0
-19 -155 0
-38 -85 0
-38 -91 0
-38 -115 0
-38 -135 0
-38 -144 0
-38 -155 0
-85 -91 0
-85 -115 0
-85 -135 0
-85 -144 0
-85 -155 0
-91 -115 0
-91 -135 0
-91 -144 0
-91 -155 0
-115 -135 0
-115 -144 0
-115 -155 0
-135 -144 0
-135 -155 0
-144 -155 0
19 38 85 91 115 135 144 155 0
-50 -74 0
-50 -122 0
-50 -138 0
-50 -150 0
-50 -160 0
-74 -122 0
-74 -138 0
-74 -150 0
-74 -160 0
-122 -138 0
-122 -150 0
-122 -160 0
-138 -150 0
-138 -160 0
-150 -160 0
50 74 122 138 150 160 0
-4 -11 0
-4 -39 0
-4 -51 0
-4 -75 0
-4 -86 0
-4 -146 0
-11 -39 0
-11 -51 0
-11 -75 0
-11 -86 0
-11 -146 0
-39 -51 0
-39 -75 0
-39 -86 0
-39 -146 0
-51 -75 0
-51 -86 0
-51 -146 0
-75 -86 0
-75 -146 0
-86 -146 0
4 11 39 51 75 86 146 0
-30 -79 0
-30 -92 0
-30 -102 0
-30 -127 0
-79 -92 0
-79 -102 0
-79 -127 0
-92 -102 0
-92 -127 0
-102 -127 0
30 79 92 102 127 0
-5 -31 0
-5 -60 0
-5 -87 0
-5 -105 0
-5 -123 0
-5 -132 0
-5 -145 0
-5 -147 0
-5 -151 0
-5 -156 0
-5 -158 0
-5 -159 0
-5 -160 0
-31 -60 0
-31 -87 0
-31 -105 0
-31 -123 0
-31 -132 0
-31 -145 0
-31 -147 0
-31 -151 0
-31 -156 0
-31 -158 0
-31 -159 0
-31 -160 0
-60 -87 0
-60 -105 0
-60 -123 0
-60 -132 0
-60 -145 0
-60 -147 0
-60 -151 0
-60 -156 0
-60 -158 0
-60 -159 0
-60 -160 0
-87 -105 0
-87 -123 0
-87 -132 0
-87 -145 0
-87 -147 0
-87 -151 0
-87 -156 0
-87 -158 0
-87 -159 0
-87 -160 0
-105 -123 0
-105 -132 0
-105 -145 0
-105 -147 0
-105 -151 0
-105 -156 0
-105 -158 0
-105 -159 0
-105 -160 0
-123 -132 0
-123 -145 0
-123 -147 0
-123 -151 0
-123 -156 0
-123 -158 0
-123 -159 0
-123 -160 0
-132 -145 0
-132 -147 0
-132 -151 0
-132 -156 0
-132 -158 0
-132 -159 0
-132 -160 0
-145 -147 0
-145 -151 0
-145 -156 0
-145 -158 0
-145 -159 0
-145 -160 0
-147 -151 0
-147 -156 0
-147 -158 0
-147 -159 0
-147 -160 0
-151 -156 0
-151 -158 0
-151 -159 0
-151 -160 0
-156 -158 0
-156 -159 0
-156 -160 0
-158 -159 0
-158 -160 0
-159 -160 0
5 31 60 87 105 123 132 145 147 151 156 158 159 160 0